c FILE: games120.col
c Translated from Stanford GraphBase File: games120.gb
c Stanford GraphBase ID: games(120,0,0,0,0,0,128,0)
p edge 120 1276
e 5 1
e 6 2
e 10 7
e 11 6
e 12 4
e 13 6
e 13 11
e 14 6
e 14 11
e 14 13
e 15 1
e 16 1
e 17 9
e 18 8
e 19 12
e 20 1
e 20 18
e 21 1
e 21 7
e 21 10
e 22 3
e 23 12
e 23 19
e 24 2
e 24 6
e 24 14
e 25 7
e 25 10
e 25 21
e 26 5
e 26 16
e 27 16
e 27 18
e 27 23
e 28 7
e 28 17
e 28 25
e 29 12
e 29 19
e 30 2
e 30 11
e 30 13
e 30 24
e 31 3
e 31 9
e 31 17
e 31 25
e 32 5
e 32 28
e 33 9
e 33 17
e 33 31
e 34 5
e 34 16
e 34 17
e 34 26
e 35 10
e 35 12
e 35 19
e 35 23
e 36 10
e 36 32
e 37 15
e 37 29
e 37 34
e 38 4
e 38 5
e 38 8
e 38 9
e 38 23
e 38 27
e 38 33
e 39 15
e 39 22
e 39 29
e 39 37
e 41 2
e 41 6
e 41 11
e 41 13
e 41 14
e 41 30
e 42 3
e 42 17
e 42 22
e 43 12
e 43 19
e 43 23
e 43 35
e 44 3
e 44 22
e 44 23
e 44 42
e 45 40
e 46 8
e 46 40
e 46 45
e 47 16
e 47 20
e 47 27
e 48 7
e 48 10
e 48 21
e 48 25
e 49 4
e 49 36
e 50 4
e 50 25
e 50 49
e 51 7
e 51 9
e 51 26
e 51 31
e 51 33
e 51 38
e 51 50
e 52 15
e 52 29
e 52 37
e 52 39
e 52 45
e 53 5
e 53 8
e 53 15
e 53 18
e 54 2
e 54 11
e 54 13
e 54 14
e 54 24
e 54 30
e 55 2
e 55 6
e 55 11
e 55 13
e 55 14
e 55 30
e 55 41
e 56 5
e 56 20
e 56 26
e 56 34
e 57 1
e 57 16
e 57 20
e 57 23
e 57 37
e 57 47
e 58 9
e 58 28
e 58 31
e 58 38
e 59 15
e 59 23
e 59 37
e 59 39
e 59 47
e 59 52
e 60 6
e 60 11
e 60 13
e 60 14
e 60 24
e 60 41
e 60 55
e 61 4
e 61 19
e 61 49
e 61 50
e 62 1
e 62 16
e 62 20
e 62 47
e 62 57
e 63 4
e 63 49
e 63 50
e 63 61
e 64 7
e 64 10
e 64 26
e 64 36
e 65 15
e 65 16
e 65 20
e 65 27
e 65 29
e 65 34
e 65 37
e 65 39
e 65 59
e 66 7
e 66 15
e 66 40
e 66 45
e 66 46
e 66 59
e 67 3
e 67 20
e 67 22
e 67 42
e 67 44
e 68 12
e 68 28
e 68 56
e 68 58
e 68 66
e 69 9
e 69 17
e 69 32
e 69 33
e 69 68
e 70 9
e 70 31
e 70 38
e 70 43
e 70 51
e 70 58
e 70 64
e 71 3
e 71 8
e 71 18
e 71 53
e 72 5
e 72 26
e 72 27
e 72 34
e 72 56
e 72 68
e 73 8
e 73 18
e 73 40
e 73 52
e 73 53
e 73 71
e 74 22
e 74 29
e 74 40
e 74 45
e 74 46
e 74 66
e 75 7
e 75 10
e 75 21
e 75 25
e 75 28
e 75 48
e 76 5
e 76 26
e 76 27
e 76 34
e 76 44
e 76 49
e 76 56
e 76 58
e 76 65
e 76 72
e 77 2
e 77 13
e 77 14
e 77 24
e 77 30
e 77 54
e 77 60
e 78 32
e 78 50
e 78 61
e 79 17
e 79 28
e 79 31
e 79 32
e 79 69
e 79 70
e 79 76
e 79 78
e 80 1
e 80 16
e 80 19
e 80 20
e 80 35
e 80 47
e 80 62
e 81 38
e 81 40
e 81 45
e 81 46
e 81 66
e 81 71
e 81 74
e 82 40
e 82 45
e 82 46
e 82 66
e 82 74
e 82 81
e 83 7
e 83 10
e 83 21
e 83 25
e 83 48
e 83 72
e 83 75
e 84 4
e 84 18
e 84 27
e 84 48
e 84 56
e 84 64
e 85 4
e 85 5
e 85 32
e 85 49
e 85 61
e 85 75
e 85 78
e 85 79
e 86 8
e 86 18
e 86 45
e 86 53
e 86 71
e 86 73
e 86 80
e 86 82
e 87 6
e 87 11
e 87 13
e 87 14
e 87 41
e 87 55
e 87 60
e 87 77
e 88 12
e 88 15
e 88 27
e 88 34
e 88 44
e 88 56
e 88 67
e 88 72
e 88 73
e 88 79
e 89 1
e 89 16
e 89 20
e 89 28
e 89 35
e 89 47
e 89 57
e 89 59
e 89 62
e 89 80
e 89 88
e 90 3
e 90 19
e 90 22
e 90 39
e 90 42
e 90 44
e 90 67
e 91 3
e 91 22
e 91 33
e 91 42
e 91 44
e 91 67
e 91 90
e 92 2
e 92 6
e 92 24
e 92 26
e 92 30
e 92 54
e 92 60
e 92 77
e 92 87
e 93 18
e 93 26
e 93 30
e 93 34
e 93 56
e 93 63
e 93 77
e 93 84
e 94 1
e 94 16
e 94 20
e 94 47
e 94 51
e 94 57
e 94 62
e 94 80
e 95 15
e 95 23
e 95 27
e 95 29
e 95 37
e 95 52
e 95 59
e 95 65
e 95 66
e 96 4
e 96 49
e 96 50
e 96 61
e 96 62
e 96 63
e 96 78
e 96 93
e 97 12
e 97 19
e 97 23
e 97 35
e 97 43
e 97 44
e 97 72
e 98 8
e 98 18
e 98 36
e 98 39
e 98 52
e 98 53
e 98 71
e 98 86
e 98 91
e 99 4
e 99 49
e 99 50
e 99 61
e 99 63
e 99 78
e 99 85
e 99 96
e 100 3
e 100 8
e 100 18
e 100 45
e 100 52
e 100 53
e 100 71
e 100 73
e 100 86
e 100 88
e 100 98
e 101 9
e 101 17
e 101 32
e 101 58
e 101 68
e 101 69
e 101 85
e 101 99
e 102 12
e 102 19
e 102 23
e 102 35
e 102 43
e 102 46
e 102 97
e 103 3
e 103 17
e 103 22
e 103 42
e 103 44
e 103 62
e 103 63
e 103 67
e 103 90
e 103 91
e 104 8
e 104 37
e 104 46
e 104 53
e 104 67
e 104 71
e 104 73
e 104 82
e 104 86
e 104 98
e 104 100
e 104 102
e 105 3
e 105 22
e 105 42
e 105 43
e 105 44
e 105 67
e 105 90
e 105 91
e 105 103
e 106 31
e 106 33
e 106 34
e 106 38
e 106 42
e 106 51
e 106 58
e 106 63
e 106 93
e 107 4
e 107 40
e 107 49
e 107 50
e 107 57
e 107 61
e 107 63
e 107 78
e 107 96
e 107 99
e 108 15
e 108 29
e 108 37
e 108 52
e 108 59
e 108 65
e 108 73
e 108 95
e 108 97
e 109 26
e 109 28
e 109 34
e 109 49
e 109 56
e 109 68
e 109 72
e 109 76
e 109 78
e 109 85
e 110 31
e 110 32
e 110 33
e 110 51
e 110 58
e 110 61
e 110 70
e 110 101
e 110 106
e 110 107
e 111 36
e 111 43
e 111 46
e 111 68
e 111 69
e 111 91
e 111 97
e 111 98
e 112 15
e 112 29
e 112 37
e 112 39
e 112 53
e 112 59
e 112 65
e 112 95
e 112 100
e 112 105
e 112 108
e 113 1
e 113 16
e 113 20
e 113 27
e 113 33
e 113 47
e 113 49
e 113 57
e 113 80
e 113 89
e 113 94
e 113 108
e 114 19
e 114 32
e 114 48
e 114 62
e 114 64
e 114 82
e 114 102
e 115 3
e 115 17
e 115 32
e 115 36
e 115 58
e 115 69
e 115 101
e 115 111
e 115 114
e 116 9
e 116 33
e 116 36
e 116 38
e 116 58
e 116 70
e 116 79
e 116 94
e 116 101
e 116 106
e 116 110
e 117 12
e 117 19
e 117 23
e 117 35
e 117 39
e 117 43
e 117 45
e 117 94
e 117 97
e 117 102
e 117 105
e 118 7
e 118 10
e 118 21
e 118 25
e 118 48
e 118 75
e 118 82
e 118 83
e 118 94
e 119 9
e 119 40
e 119 45
e 119 46
e 119 64
e 119 66
e 119 71
e 119 74
e 119 81
e 119 82
e 119 116
e 120 7
e 120 10
e 120 21
e 120 25
e 120 28
e 120 48
e 120 64
e 120 75
e 120 83
e 120 109
e 120 118
